
Gurobi 12.0.1 (win64, C++) logging started Thu Apr 17 22:34:05 2025

Set parameter Username
Academic license - for non-commercial use only - expires 2026-01-06
Set parameter Threads to value 8
Set parameter LazyConstraints to value 1
Set parameter PreCrush to value 1
Set parameter Seed to value 10
Set parameter Cuts to value -1
Set parameter TimeLimit to value 28800
Set parameter NumericFocus to value 0
Set parameter SolutionLimit to value 10000
Gurobi Optimizer version 12.0.1 build v12.0.1rc0 (win64 - Windows Server 2022.0 (20348.2))

CPU model: AMD EPYC 7513 32-Core Processor, instruction set [SSE2|AVX|AVX2]
Thread count: 18 physical cores, 18 logical processors, using up to 8 threads

Non-default parameters:
SolutionLimit  10000
TimeLimit  28800
PreCrush  1
Seed  10
Threads  8
LazyConstraints  1

Optimize a model with 254 rows, 484 columns and 1386 nonzeros
Model fingerprint: 0xeda96254
Variable types: 0 continuous, 484 integer (484 binary)
Coefficient statistics:
  Matrix range     [1e+00, 1e+00]
  Objective range  [3e+00, 8e+01]
  Bounds range     [1e+00, 1e+00]
  RHS range        [1e+00, 6e+00]

User MIP start produced solution with objective 409.89 (0.00s)
Loaded user MIP start with objective 409.89

Presolve removed 1 rows and 24 columns
Presolve time: 0.00s
Presolved: 253 rows, 460 columns, 1338 nonzeros
Variable types: 0 continuous, 460 integer (460 binary)

Root relaxation: objective 3.091569e+02, 78 iterations, 0.00 seconds (0.00 work units)

    Nodes    |    Current Node    |     Objective Bounds      |     Work
 Expl Unexpl |  Obj  Depth IntInf | Incumbent    BestBd   Gap | It/Node Time

     0     0  309.15693    0   20  409.89002  309.15693  24.6%     -    0s
     0     0  328.17626    0    -  409.89002  328.17626  19.9%     -    0s
     0     0  351.82547    0   22  409.89002  351.82547  14.2%     -    0s
     0     0  352.76271    0   42  409.89002  352.76271  13.9%     -    0s
     0     0  358.02470    0   18  409.89002  358.02470  12.7%     -    0s
     0     0  366.36155    0    -  409.89002  366.36155  10.6%     -    0s
     0     0  368.87284    0   12  409.89002  368.87284  10.0%     -    0s
     0     0  371.27310    0    -  409.89002  371.27310  9.42%     -    1s
     0     0  371.59169    0   17  409.89002  371.59169  9.34%     -    1s
     0     0  371.59169    0   30  409.89002  371.59169  9.34%     -    1s
     0     0  371.59169    0   11  409.89002  371.59169  9.34%     -    1s
H    0     0                     397.6268554  371.59169  6.55%     -    1s
     0     0  373.25614    0   37  397.62686  373.25614  6.13%     -    1s
     0     0  374.29500    0   51  397.62686  374.29500  5.87%     -    6s
     0     0  376.45232    0   59  397.62686  376.45232  5.33%     -    6s
     0     0  376.47544    0   62  397.62686  376.47544  5.32%     -    6s
     0     0  376.48622    0   58  397.62686  376.48622  5.32%     -    6s
     0     0  377.78284    0   40  397.62686  377.78284  4.99%     -    7s
     0     0  378.10292    0   48  397.62686  378.10292  4.91%     -    7s
H    0     0                     395.6358416  378.10292  4.43%     -    7s
     0     0  379.04817    0   48  395.63584  379.04817  4.19%     -    7s
     0     0  379.29359    0   52  395.63584  379.29359  4.13%     -    7s
     0     0  379.29359    0   54  395.63584  379.29359  4.13%     -    7s
*    0     0               0     379.4310956  379.43110  0.00%     -    7s

Cutting planes:
  Gomory: 2
  Cover: 1
  MIR: 2
  GUB cover: 1
  Zero half: 34
  Lazy constraints: 306

Explored 1 nodes (695 simplex iterations) in 7.59 seconds (0.39 work units)
Thread count was 8 (of 18 available processors)

Solution count 4: 379.431 395.636 397.627 409.89 

Optimal solution found (tolerance 1.00e-04)
Best objective 3.794310956208e+02, best bound 3.794310956208e+02, gap 0.0000%

User-callback calls 427, time in user-callback 7.11 sec
### START EXACT APPROACH ###
ProblemVariant: 5
### START PREPROCESSING ###
## Start infeasible path procedure ## 
Deleted arcs: 2
Infeasible tail paths: 0
Infeasible 2-node combinations: 1
## Start extended infeasible path procedure ##
Deleted arcs: 2
Infeasible tail paths: 0
Infeasible 2-node combinations: 1
## Start start solution procedure ##
Start solution with 5 Vehicles and total costs 409.89 in 1.03134 s.
### END PREPROCESSING ###
Route 0 0-9-7-5-2-1-10-0 : weight util 0.966667 | volume util 0.789778 | infeasible with packing heuristic | feasible with CP model
Route 1 0-13-11-4-3-6-8-0 : weight util 0.866667 | volume util 0.781267 | infeasible with packing heuristic | feasible with CP model
Route 2 0-16-19-21-14-0 : weight util 0.933333 | volume util 0.637111 | infeasible with packing heuristic | feasible with CP model
Route 3 0-17-20-18-15-12-0 : weight util 0.983333 | volume util 0.726644 | feasible with packing heuristic | feasible with CP model
